db/data/287211649451028804301224451481612943.z3.out
sat
-------------------
3.027494549
